10 10 10
50
7 10 8
8 10 2
5 6 2
3 1 3
3 7 7
9 9 4
8 6 3
3 1 3
4 3 8
6 10 9
2 6 7
4 6 4
5 10 6
7 3 5
7 3 2
2 2 8
10 5 2
2 2 10
9 3 1
4 9 8
3 3 3
4 3 2
9 7 6
5 1 9
4 7 8
3 10 10
8 1 3
6 5 3
4 3 1
9 7 10
8 1 5
10 7 2
7 6 10
9 8 1
2 8 3
7 2 7
2 2 5
4 1 4
4 6 6
8 4 5
4 10 8
2 9 9
6 3 1
6 4 7
4 5 10
9 4 4
3 7 5
5 3 3
4 5 7
9 1 8
